66
1 0 8
2 0 6
2 1 11
3 0 16
3 1 22
3 2 11
4 0 14
4 1 21
4 2 20
4 3 25
5 0 13
5 1 21
5 2 1
5 3 19
5 4 15
6 0 11
6 1 1
6 2 18
6 3 13
6 4 27
6 5 5
7 0 19
7 1 2
7 2 27
7 3 28
7 4 21
7 5 2
7 6 15
8 0 24
8 1 18
8 2 10
8 3 6
8 4 20
8 5 21
8 6 13
8 7 5
9 0 1
9 1 18
9 2 4
9 3 28
9 4 21
9 5 18
9 6 17
9 7 18
9 8 17
10 0 22
10 1 2
10 2 17
10 3 20
10 4 29
10 5 13
10 6 21
10 7 27
10 8 1
10 9 2
11 0 11
11 1 29
11 2 24
11 3 9
11 4 17
11 5 5
11 6 16
11 7 10
11 8 7
11 9 15
11 10 4
12 0 26
12 1 14
12 2 5
12 3 8
12 4 12
12 5 8
12 6 29
12 7 6
12 8 27
12 9 23
12 10 24
12 11 7
13 0 18
13 1 20
13 2 22
13 3 20
13 4 10
13 5 15
13 6 21
13 7 12
13 8 22
13 9 20
13 10 25
13 11 11
13 12 2
14 0 2
14 1 19
14 2 22
14 3 11
14 4 18
14 5 18
14 6 22
14 7 2
14 8 12
14 9 15
14 10 1
14 11 25
14 12 26
14 13 21
15 0 5
15 1 12
15 2 14
15 3 13
15 4 25
15 5 7
15 6 15
15 7 14
15 8 27
15 9 12
15 10 11
15 11 25
15 12 21
15 13 2
15 14 9
16 0 27
16 1 2
16 2 22
16 3 8
16 4 27
16 5 20
16 6 21
16 7 15
16 8 25
16 9 19
16 10 22
16 11 7
16 12 5
16 13 13
16 14 25
16 15 6
17 0 21
17 1 7
17 2 16
17 3 3
17 4 1
17 5 6
17 6 15
17 7 9
17 8 17
17 9 17
17 10 14
17 11 29
17 12 28
17 13 16
17 14 25
17 15 5
17 16 26
18 0 15
18 1 13
18 2 22
18 3 12
18 4 10
18 5 2
18 6 20
18 7 6
18 8 11
18 9 11
18 10 7
18 11 3
18 12 16
18 13 24
18 14 8
18 15 25
18 16 27
18 17 13
19 0 19
19 1 13
19 2 3
19 3 11
19 4 2
19 5 17
19 6 20
19 7 2
19 8 12
19 9 6
19 10 23
19 11 2
19 12 6
19 13 28
19 14 4
19 15 27
19 16 5
19 17 6
19 18 28
20 0 25
20 1 6
20 2 26
20 3 12
20 4 1
20 5 13
20 6 12
20 7 15
20 8 7
20 9 18
20 10 29
20 11 9
20 12 3
20 13 16
20 14 26
20 15 17
20 16 19
20 17 14
20 18 23
20 19 5
21 0 15
21 1 22
21 2 10
21 3 8
21 4 27
21 5 2
21 6 29
21 7 13
21 8 24
21 9 24
21 10 11
21 11 19
21 12 7
21 13 28
21 14 20
21 15 2
21 16 26
21 17 7
21 18 10
21 19 10
21 20 2
22 0 23
22 1 9
22 2 14
22 3 12
22 4 7
22 5 2
22 6 8
22 7 28
22 8 10
22 9 18
22 10 17
22 11 6
22 12 22
22 13 27
22 14 16
22 15 2
22 16 26
22 17 21
22 18 2
22 19 25
22 20 12
22 21 1
23 0 3
23 1 8
23 2 12
23 3 27
23 4 27
23 5 3
23 6 26
23 7 17
23 8 12
23 9 18
23 10 29
23 11 9
23 12 10
23 13 12
23 14 21
23 15 10
23 16 7
23 17 26
23 18 12
23 19 18
23 20 16
23 21 20
23 22 17
24 0 16
24 1 10
24 2 16
24 3 22
24 4 24
24 5 5
24 6 29
24 7 17
24 8 18
24 9 3
24 10 6
24 11 6
24 12 19
24 13 21
24 14 3
24 15 13
24 16 9
24 17 8
24 18 27
24 19 27
24 20 3
24 21 9
24 22 12
24 23 13
25 0 27
25 1 16
25 2 7
25 3 28
25 4 21
25 5 19
25 6 24
25 7 7
25 8 24
25 9 11
25 10 10
25 11 14
25 12 2
25 13 6
25 14 13
25 15 20
25 16 26
25 17 11
25 18 14
25 19 26
25 20 27
25 21 21
25 22 20
25 23 8
25 24 12
26 0 6
26 1 22
26 2 5
26 3 14
26 4 23
26 5 7
26 6 24
26 7 28
26 8 27
26 9 6
26 10 12
26 11 9
26 12 27
26 13 27
26 14 15
26 15 19
26 16 27
26 17 5
26 18 6
26 19 16
26 20 17
26 21 1
26 22 8
26 23 5
26 24 4
26 25 29
27 0 14
27 1 24
27 2 18
27 3 9
27 4 19
27 5 18
27 6 27
27 7 26
27 8 4
27 9 3
27 10 1
27 11 5
27 12 25
27 13 23
27 14 14
27 15 12
27 16 2
27 17 13
27 18 17
27 19 28
27 20 13
27 21 10
27 22 16
27 23 23
27 24 3
27 25 23
27 26 6
28 0 6
28 1 29
28 2 17
28 3 21
28 4 3
28 5 5
28 6 20
28 7 4
28 8 29
28 9 14
28 10 19
28 11 6
28 12 4
28 13 12
28 14 19
28 15 18
28 16 11
28 17 25
28 18 29
28 19 8
28 20 2
28 21 21
28 22 29
28 23 20
28 24 21
28 25 29
28 26 26
28 27 20
29 0 6
29 1 1
29 2 27
29 3 9
29 4 8
29 5 1
29 6 28
29 7 9
29 8 1
29 9 1
29 10 5
29 11 16
29 12 22
29 13 1
29 14 11
29 15 18
29 16 18
29 17 21
29 18 1
29 19 8
29 20 25
29 21 4
29 22 18
29 23 28
29 24 9
29 25 10
29 26 24
29 27 23
29 28 25
30 0 24
30 1 25
30 2 11
30 3 19
30 4 4
30 5 25
30 6 29
30 7 15
30 8 26
30 9 10
30 10 18
30 11 23
30 12 17
30 13 16
30 14 15
30 15 15
30 16 14
30 17 2
30 18 1
30 19 25
30 20 10
30 21 11
30 22 11
30 23 19
30 24 15
30 25 9
30 26 19
30 27 4
30 28 19
30 29 26
31 0 14
31 1 6
31 2 23
31 3 24
31 4 23
31 5 28
31 6 15
31 7 11
31 8 25
31 9 8
31 10 29
31 11 24
31 12 11
31 13 12
31 14 14
31 15 24
31 16 19
31 17 14
31 18 15
31 19 9
31 20 13
31 21 28
31 22 26
31 23 13
31 24 21
31 25 2
31 26 4
31 27 14
31 28 8
31 29 21
31 30 26
32 0 12
32 1 7
32 2 24
32 3 19
32 4 12
32 5 3
32 6 17
32 7 28
32 8 10
32 9 22
32 10 10
32 11 11
32 12 26
32 13 7
32 14 6
32 15 6
32 16 22
32 17 3
32 18 4
32 19 6
32 20 14
32 21 14
32 22 23
32 23 28
32 24 15
32 25 3
32 26 23
32 27 3
32 28 12
32 29 12
32 30 13
32 31 13
33 0 3
33 1 29
33 2 5
33 3 26
33 4 10
33 5 26
33 6 22
33 7 16
33 8 24
33 9 12
33 10 25
33 11 7
33 12 14
33 13 4
33 14 22
33 15 19
33 16 6
33 17 13
33 18 14
33 19 13
33 20 17
33 21 4
33 22 29
33 23 22
33 24 21
33 25 2
33 26 29
33 27 29
33 28 17
33 29 28
33 30 5
33 31 13
33 32 5
34 0 20
34 1 8
34 2 1
34 3 25
34 4 1
34 5 21
34 6 7
34 7 10
34 8 1
34 9 18
34 10 24
34 11 7
34 12 8
34 13 6
34 14 25
34 15 4
34 16 1
34 17 3
34 18 23
34 19 20
34 20 15
34 21 12
34 22 21
34 23 6
34 24 13
34 25 17
34 26 21
34 27 16
34 28 21
34 29 9
34 30 13
34 31 19
34 32 4
34 33 28
35 0 20
35 1 16
35 2 4
35 3 23
35 4 20
35 5 25
35 6 1
35 7 3
35 8 23
35 9 17
35 10 14
35 11 8
35 12 18
35 13 27
35 14 27
35 15 15
35 16 26
35 17 26
35 18 9
35 19 27
35 20 8
35 21 3
35 22 4
35 23 9
35 24 29
35 25 10
35 26 2
35 27 29
35 28 5
35 29 15
35 30 15
35 31 24
35 32 26
35 33 24
35 34 11
36 0 18
36 1 20
36 2 3
36 3 18
36 4 23
36 5 4
36 6 25
36 7 2
36 8 16
36 9 4
36 10 9
36 11 11
36 12 2
36 13 10
36 14 18
36 15 14
36 16 27
36 17 12
36 18 28
36 19 17
36 20 25
36 21 4
36 22 15
36 23 17
36 24 10
36 25 28
36 26 20
36 27 1
36 28 17
36 29 27
36 30 24
36 31 2
36 32 6
36 33 2
36 34 18
36 35 15
37 0 7
37 1 19
37 2 18
37 3 11
37 4 18
37 5 22
37 6 23
37 7 16
37 8 9
37 9 10
37 10 16
37 11 4
37 12 5
37 13 9
37 14 20
37 15 19
37 16 4
37 17 19
37 18 9
37 19 25
37 20 11
37 21 22
37 22 10
37 23 21
37 24 4
37 25 27
37 26 22
37 27 10
37 28 7
37 29 4
37 30 28
37 31 18
37 32 7
37 33 19
37 34 18
37 35 16
37 36 5
38 0 13
38 1 16
38 2 4
38 3 29
38 4 5
38 5 3
38 6 25
38 7 6
38 8 5
38 9 22
38 10 5
38 11 10
38 12 25
38 13 24
38 14 26
38 15 14
38 16 11
38 17 4
38 18 26
38 19 21
38 20 17
38 21 25
38 22 23
38 23 3
38 24 15
38 25 24
38 26 16
38 27 26
38 28 20
38 29 2
38 30 1
38 31 5
38 32 19
38 33 24
38 34 3
38 35 12
38 36 29
38 37 8
39 0 18
39 1 9
39 2 18
39 3 11
39 4 16
39 5 4
39 6 18
39 7 5
39 8 29
39 9 9
39 10 13
39 11 3
39 12 1
39 13 1
39 14 22
39 15 24
39 16 4
39 17 1
39 18 18
39 19 8
39 20 13
39 21 29
39 22 3
39 23 23
39 24 9
39 25 1
39 26 25
39 27 26
39 28 7
39 29 9
39 30 15
39 31 2
39 32 10
39 33 24
39 34 17
39 35 20
39 36 15
39 37 23
39 38 28
40 0 19
40 1 10
40 2 1
40 3 28
40 4 1
40 5 5
40 6 16
40 7 3
40 8 18
40 9 25
40 10 13
40 11 14
40 12 23
40 13 14
40 14 25
40 15 23
40 16 8
40 17 17
40 18 22
40 19 6
40 20 10
40 21 25
40 22 7
40 23 16
40 24 12
40 25 15
40 26 4
40 27 25
40 28 26
40 29 20
40 30 12
40 31 23
40 32 23
40 33 17
40 34 15
40 35 28
40 36 16
40 37 24
40 38 13
40 39 22
41 0 29
41 1 27
41 2 25
41 3 8
41 4 16
41 5 22
41 6 24
41 7 22
41 8 29
41 9 13
41 10 4
41 11 8
41 12 3
41 13 13
41 14 20
41 15 23
41 16 14
41 17 26
41 18 29
41 19 19
41 20 11
41 21 11
41 22 1
41 23 12
41 24 21
41 25 17
41 26 14
41 27 4
41 28 8
41 29 12
41 30 28
41 31 2
41 32 10
41 33 11
41 34 7
41 35 2
41 36 14
41 37 17
41 38 5
41 39 24
41 40 14
42 0 13
42 1 23
42 2 17
42 3 21
42 4 12
42 5 4
42 6 10
42 7 22
42 8 6
42 9 18
42 10 15
42 11 25
42 12 1
42 13 20
42 14 8
42 15 5
42 16 28
42 17 18
42 18 15
42 19 29
42 20 4
42 21 12
42 22 4
42 23 1
42 24 27
42 25 29
42 26 11
42 27 13
42 28 16
42 29 10
42 30 8
42 31 11
42 32 23
42 33 16
42 34 11
42 35 16
42 36 17
42 37 9
42 38 13
42 39 9
42 40 21
42 41 21
43 0 21
43 1 20
43 2 3
43 3 22
43 4 20
43 5 17
43 6 29
43 7 21
43 8 7
43 9 24
43 10 13
43 11 13
43 12 16
43 13 15
43 14 23
43 15 10
43 16 28
43 17 11
43 18 24
43 19 4
43 20 15
43 21 23
43 22 1
43 23 8
43 24 5
43 25 21
43 26 27
43 27 7
43 28 5
43 29 21
43 30 27
43 31 25
43 32 1
43 33 21
43 34 15
43 35 1
43 36 11
43 37 13
43 38 27
43 39 29
43 40 27
43 41 8
43 42 21
44 0 4
44 1 28
44 2 14
44 3 7
44 4 5
44 5 11
44 6 16
44 7 3
44 8 23
44 9 22
44 10 10
44 11 19
44 12 11
44 13 16
44 14 14
44 15 7
44 16 18
44 17 29
44 18 16
44 19 7
44 20 16
44 21 13
44 22 24
44 23 16
44 24 23
44 25 4
44 26 8
44 27 26
44 28 28
44 29 19
44 30 16
44 31 3
44 32 4
44 33 25
44 34 28
44 35 6
44 36 16
44 37 17
44 38 17
44 39 1
44 40 8
44 41 18
44 42 10
44 43 25
45 0 21
45 1 19
45 2 7
45 3 24
45 4 19
45 5 16
45 6 5
45 7 17
45 8 8
45 9 21
45 10 22
45 11 7
45 12 3
45 13 17
45 14 27
45 15 15
45 16 25
45 17 11
45 18 17
45 19 27
45 20 27
45 21 3
45 22 17
45 23 29
45 24 17
45 25 23
45 26 20
45 27 29
45 28 7
45 29 23
45 30 24
45 31 1
45 32 25
45 33 28
45 34 22
45 35 2
45 36 14
45 37 3
45 38 7
45 39 3
45 40 23
45 41 2
45 42 13
45 43 6
45 44 26
46 0 20
46 1 17
46 2 14
46 3 19
46 4 23
46 5 8
46 6 16
46 7 22
46 8 19
46 9 21
46 10 29
46 11 19
46 12 26
46 13 23
46 14 22
46 15 11
46 16 23
46 17 29
46 18 18
46 19 7
46 20 27
46 21 10
46 22 3
46 23 7
46 24 13
46 25 16
46 26 23
46 27 9
46 28 22
46 29 3
46 30 6
46 31 2
46 32 16
46 33 3
46 34 7
46 35 8
46 36 21
46 37 17
46 38 25
46 39 4
46 40 7
46 41 15
46 42 9
46 43 22
46 44 10
46 45 20
47 0 3
47 1 13
47 2 13
47 3 3
47 4 15
47 5 7
47 6 17
47 7 28
47 8 16
47 9 5
47 10 12
47 11 13
47 12 5
47 13 14
47 14 29
47 15 12
47 16 28
47 17 22
47 18 1
47 19 27
47 20 20
47 21 18
47 22 2
47 23 23
47 24 1
47 25 20
47 26 27
47 27 5
47 28 7
47 29 10
47 30 16
47 31 8
47 32 13
47 33 15
47 34 19
47 35 20
47 36 1
47 37 13
47 38 6
47 39 11
47 40 2
47 41 25
47 42 14
47 43 23
47 44 27
47 45 20
47 46 7
48 0 20
48 1 17
48 2 14
48 3 7
48 4 16
48 5 26
48 6 29
48 7 6
48 8 15
48 9 5
48 10 11
48 11 26
48 12 2
48 13 7
48 14 22
48 15 24
48 16 16
48 17 16
48 18 29
48 19 4
48 20 24
48 21 8
48 22 23
48 23 2
48 24 12
48 25 2
48 26 8
48 27 19
48 28 7
48 29 17
48 30 7
48 31 5
48 32 28
48 33 11
48 34 6
48 35 14
48 36 11
48 37 14
48 38 28
48 39 25
48 40 27
48 41 28
48 42 25
48 43 28
48 44 26
48 45 10
48 46 6
48 47 24
49 0 27
49 1 6
49 2 27
49 3 24
49 4 5
49 5 29
49 6 18
49 7 28
49 8 27
49 9 13
49 10 3
49 11 25
49 12 10
49 13 4
49 14 10
49 15 3
49 16 9
49 17 15
49 18 16
49 19 21
49 20 3
49 21 19
49 22 20
49 23 19
49 24 28
49 25 9
49 26 9
49 27 12
49 28 26
49 29 26
49 30 2
49 31 8
49 32 8
49 33 24
49 34 4
49 35 24
49 36 4
49 37 3
49 38 27
49 39 27
49 40 4
49 41 1
49 42 22
49 43 21
49 44 21
49 45 21
49 46 12
49 47 25
49 48 22
50 0 16
50 1 28
50 2 6
50 3 19
50 4 15
50 5 2
50 6 20
50 7 11
50 8 29
50 9 26
50 10 13
50 11 25
50 12 7
50 13 24
50 14 18
50 15 5
50 16 2
50 17 6
50 18 23
50 19 2
50 20 13
50 21 14
50 22 26
50 23 21
50 24 13
50 25 17
50 26 7
50 27 7
50 28 6
50 29 8
50 30 7
50 31 18
50 32 6
50 33 24
50 34 7
50 35 18
50 36 1
50 37 24
50 38 11
50 39 1
50 40 10
50 41 20
50 42 29
50 43 13
50 44 9
50 45 16
50 46 21
50 47 29
50 48 19
50 49 25
51 0 25
51 1 14
51 2 12
51 3 2
51 4 11
51 5 27
51 6 19
51 7 29
51 8 14
51 9 3
51 10 2
51 11 3
51 12 22
51 13 19
51 14 29
51 15 22
51 16 25
51 17 4
51 18 12
51 19 21
51 20 27
51 21 26
51 22 25
51 23 1
51 24 9
51 25 6
51 26 10
51 27 20
51 28 14
51 29 3
51 30 23
51 31 2
51 32 1
51 33 29
51 34 15
51 35 12
51 36 29
51 37 22
51 38 19
51 39 19
51 40 1
51 41 1
51 42 22
51 43 22
51 44 10
51 45 4
51 46 26
51 47 15
51 48 11
51 49 6
51 50 28
52 0 19
52 1 5
52 2 9
52 3 27
52 4 14
52 5 17
52 6 25
52 7 15
52 8 16
52 9 14
52 10 28
52 11 2
52 12 1
52 13 3
52 14 22
52 15 6
52 16 19
52 17 11
52 18 6
52 19 4
52 20 19
52 21 27
52 22 15
52 23 15
52 24 28
52 25 27
52 26 29
52 27 27
52 28 10
52 29 29
52 30 24
52 31 18
52 32 26
52 33 2
52 34 3
52 35 14
52 36 3
52 37 23
52 38 12
52 39 17
52 40 7
52 41 18
52 42 11
52 43 27
52 44 17
52 45 29
52 46 12
52 47 11
52 48 8
52 49 16
52 50 7
52 51 2
53 0 18
53 1 2
53 2 23
53 3 1
53 4 8
53 5 3
53 6 4
53 7 26
53 8 4
53 9 22
53 10 3
53 11 19
53 12 6
53 13 13
53 14 23
53 15 16
53 16 18
53 17 2
53 18 5
53 19 15
53 20 25
53 21 26
53 22 14
53 23 12
53 24 4
53 25 23
53 26 9
53 27 3
53 28 9
53 29 21
53 30 4
53 31 16
53 32 26
53 33 3
53 34 4
53 35 2
53 36 12
53 37 24
53 38 11
53 39 29
53 40 14
53 41 23
53 42 13
53 43 11
53 44 28
53 45 17
53 46 20
53 47 1
53 48 17
53 49 16
53 50 6
53 51 9
53 52 23
54 0 25
54 1 5
54 2 24
54 3 28
54 4 1
54 5 20
54 6 8
54 7 16
54 8 28
54 9 16
54 10 5
54 11 19
54 12 26
54 13 1
54 14 3
54 15 12
54 16 29
54 17 23
54 18 15
54 19 26
54 20 8
54 21 20
54 22 21
54 23 11
54 24 29
54 25 1
54 26 7
54 27 11
54 28 1
54 29 4
54 30 10
54 31 19
54 32 14
54 33 28
54 34 10
54 35 12
54 36 20
54 37 23
54 38 8
54 39 18
54 40 26
54 41 19
54 42 27
54 43 4
54 44 6
54 45 7
54 46 29
54 47 17
54 48 7
54 49 22
54 50 13
54 51 27
54 52 1
54 53 9
55 0 26
55 1 17
55 2 28
55 3 6
55 4 21
55 5 16
55 6 16
55 7 17
55 8 11
55 9 19
55 10 19
55 11 10
55 12 20
55 13 23
55 14 14
55 15 3
55 16 19
55 17 6
55 18 3
55 19 9
55 20 22
55 21 22
55 22 14
55 23 28
55 24 20
55 25 28
55 26 13
55 27 4
55 28 5
55 29 10
55 30 3
55 31 14
55 32 3
55 33 25
55 34 7
55 35 27
55 36 22
55 37 27
55 38 29
55 39 7
55 40 27
55 41 18
55 42 26
55 43 26
55 44 22
55 45 26
55 46 27
55 47 10
55 48 18
55 49 6
55 50 5
55 51 10
55 52 7
55 53 7
55 54 11
56 0 2
56 1 24
56 2 7
56 3 13
56 4 13
56 5 2
56 6 10
56 7 11
56 8 11
56 9 4
56 10 21
56 11 20
56 12 8
56 13 1
56 14 21
56 15 28
56 16 26
56 17 4
56 18 3
56 19 3
56 20 10
56 21 11
56 22 24
56 23 18
56 24 24
56 25 29
56 26 25
56 27 28
56 28 12
56 29 4
56 30 24
56 31 14
56 32 5
56 33 10
56 34 29
56 35 21
56 36 29
56 37 7
56 38 18
56 39 13
56 40 5
56 41 3
56 42 4
56 43 1
56 44 28
56 45 14
56 46 21
56 47 7
56 48 24
56 49 8
56 50 22
56 51 29
56 52 25
56 53 25
56 54 11
56 55 5
57 0 13
57 1 16
57 2 25
57 3 17
57 4 15
57 5 8
57 6 12
57 7 27
57 8 26
57 9 8
57 10 24
57 11 1
57 12 2
57 13 5
57 14 16
57 15 2
57 16 10
57 17 1
57 18 18
57 19 9
57 20 12
57 21 18
57 22 13
57 23 13
57 24 20
57 25 13
57 26 7
57 27 28
57 28 4
57 29 21
57 30 2
57 31 20
57 32 28
57 33 26
57 34 18
57 35 25
57 36 26
57 37 29
57 38 19
57 39 3
57 40 25
57 41 8
57 42 18
57 43 1
57 44 2
57 45 7
57 46 10
57 47 25
57 48 19
57 49 13
57 50 15
57 51 22
57 52 28
57 53 14
57 54 9
57 55 25
57 56 28
58 0 8
58 1 17
58 2 19
58 3 16
58 4 6
58 5 10
58 6 15
58 7 1
58 8 2
58 9 10
58 10 29
58 11 7
58 12 25
58 13 6
58 14 6
58 15 1
58 16 9
58 17 15
58 18 28
58 19 18
58 20 18
58 21 6
58 22 1
58 23 13
58 24 6
58 25 27
58 26 9
58 27 2
58 28 5
58 29 20
58 30 26
58 31 24
58 32 17
58 33 6
58 34 17
58 35 10
58 36 5
58 37 22
58 38 24
58 39 14
58 40 4
58 41 6
58 42 9
58 43 29
58 44 12
58 45 25
58 46 3
58 47 22
58 48 11
58 49 6
58 50 12
58 51 25
58 52 20
58 53 16
58 54 29
58 55 25
58 56 3
58 57 3
59 0 9
59 1 10
59 2 15
59 3 8
59 4 24
59 5 15
59 6 26
59 7 3
59 8 27
59 9 21
59 10 16
59 11 2
59 12 13
59 13 12
59 14 25
59 15 14
59 16 26
59 17 8
59 18 20
59 19 18
59 20 20
59 21 25
59 22 4
59 23 3
59 24 21
59 25 12
59 26 24
59 27 3
59 28 29
59 29 20
59 30 10
59 31 14
59 32 6
59 33 23
59 34 21
59 35 29
59 36 15
59 37 12
59 38 9
59 39 1
59 40 1
59 41 4
59 42 3
59 43 13
59 44 6
59 45 10
59 46 14
59 47 24
59 48 6
59 49 7
59 50 27
59 51 28
59 52 24
59 53 1
59 54 13
59 55 10
59 56 25
59 57 22
59 58 2
60 0 27
60 1 23
60 2 28
60 3 13
60 4 24
60 5 4
60 6 27
60 7 1
60 8 11
60 9 27
60 10 5
60 11 29
60 12 19
60 13 3
60 14 7
60 15 1
60 16 16
60 17 27
60 18 9
60 19 5
60 20 7
60 21 20
60 22 3
60 23 9
60 24 28
60 25 24
60 26 21
60 27 5
60 28 4
60 29 29
60 30 4
60 31 22
60 32 26
60 33 10
60 34 19
60 35 23
60 36 14
60 37 18
60 38 29
60 39 10
60 40 17
60 41 26
60 42 26
60 43 27
60 44 19
60 45 26
60 46 9
60 47 18
60 48 24
60 49 25
60 50 7
60 51 25
60 52 10
60 53 16
60 54 10
60 55 15
60 56 11
60 57 6
60 58 14
60 59 24
61 0 22
61 1 5
61 2 28
61 3 2
61 4 15
61 5 10
61 6 7
61 7 8
61 8 13
61 9 6
61 10 29
61 11 1
61 12 16
61 13 22
61 14 10
61 15 15
61 16 29
61 17 13
61 18 2
61 19 29
61 20 16
61 21 13
61 22 25
61 23 24
61 24 15
61 25 11
61 26 25
61 27 10
61 28 27
61 29 7
61 30 1
61 31 3
61 32 23
61 33 29
61 34 23
61 35 25
61 36 10
61 37 2
61 38 17
61 39 27
61 40 14
61 41 2
61 42 1
61 43 11
61 44 8
61 45 27
61 46 27
61 47 6
61 48 29
61 49 15
61 50 6
61 51 19
61 52 28
61 53 25
61 54 28
61 55 10
61 56 2
61 57 21
61 58 6
61 59 15
61 60 10
62 0 21
62 1 12
62 2 19
62 3 9
62 4 4
62 5 16
62 6 8
62 7 28
62 8 27
62 9 6
62 10 18
62 11 13
62 12 25
62 13 9
62 14 11
62 15 23
62 16 20
62 17 5
62 18 8
62 19 14
62 20 14
62 21 7
62 22 5
62 23 16
62 24 24
62 25 16
62 26 10
62 27 10
62 28 25
62 29 15
62 30 5
62 31 18
62 32 17
62 33 6
62 34 23
62 35 28
62 36 7
62 37 20
62 38 8
62 39 5
62 40 1
62 41 12
62 42 23
62 43 8
62 44 4
62 45 9
62 46 8
62 47 14
62 48 23
62 49 15
62 50 10
62 51 26
62 52 23
62 53 25
62 54 26
62 55 2
62 56 5
62 57 2
62 58 2
62 59 28
62 60 11
62 61 28
63 0 20
63 1 29
63 2 15
63 3 18
63 4 26
63 5 5
63 6 10
63 7 11
63 8 12
63 9 8
63 10 1
63 11 13
63 12 28
63 13 7
63 14 4
63 15 2
63 16 11
63 17 6
63 18 1
63 19 21
63 20 3
63 21 20
63 22 24
63 23 26
63 24 16
63 25 24
63 26 13
63 27 10
63 28 22
63 29 25
63 30 23
63 31 19
63 32 6
63 33 12
63 34 18
63 35 20
63 36 10
63 37 7
63 38 19
63 39 16
63 40 14
63 41 3
63 42 18
63 43 20
63 44 14
63 45 29
63 46 12
63 47 5
63 48 18
63 49 10
63 50 2
63 51 25
63 52 1
63 53 4
63 54 9
63 55 22
63 56 25
63 57 20
63 58 20
63 59 2
63 60 7
63 61 16
63 62 9
64 0 28
64 1 9
64 2 10
64 3 4
64 4 12
64 5 3
64 6 16
64 7 8
64 8 6
64 9 5
64 10 4
64 11 10
64 12 21
64 13 4
64 14 27
64 15 14
64 16 29
64 17 6
64 18 2
64 19 25
64 20 20
64 21 26
64 22 23
64 23 7
64 24 7
64 25 10
64 26 10
64 27 1
64 28 17
64 29 21
64 30 5
64 31 14
64 32 18
64 33 21
64 34 5
64 35 3
64 36 28
64 37 5
64 38 24
64 39 18
64 40 12
64 41 20
64 42 24
64 43 3
64 44 17
64 45 24
64 46 3
64 47 15
64 48 25
64 49 7
64 50 14
64 51 16
64 52 15
64 53 15
64 54 12
64 55 8
64 56 1
64 57 24
64 58 14
64 59 10
64 60 11
64 61 8
64 62 24
64 63 21
65 0 24
65 1 27
65 2 7
65 3 26
65 4 22
65 5 18
65 6 29
65 7 10
65 8 17
65 9 11
65 10 17
65 11 24
65 12 27
65 13 7
65 14 16
65 15 26
65 16 6
65 17 16
65 18 22
65 19 1
65 20 19
65 21 11
65 22 9
65 23 18
65 24 18
65 25 6
65 26 25
65 27 25
65 28 28
65 29 17
65 30 15
65 31 3
65 32 13
65 33 26
65 34 2
65 35 28
65 36 17
65 37 25
65 38 20
65 39 24
65 40 17
65 41 15
65 42 1
65 43 7
65 44 1
65 45 15
65 46 10
65 47 29
65 48 20
65 49 4
65 50 7
65 51 14
65 52 8
65 53 12
65 54 10
65 55 15
65 56 14
65 57 27
65 58 15
65 59 26
65 60 8
65 61 18
65 62 12
65 63 28
65 64 8
